(set-logic QF_LRA)
(declare-fun T1 () Real )
(declare-fun T2 () Real )
(declare-fun T3 () Real )
(declare-fun T4 () Real )
(declare-fun T5 () Real )
(declare-fun T6 () Real )
(declare-fun T7 () Real )
(declare-fun T8 () Real )
(declare-fun T9 () Real )
(declare-fun T10 () Real )
(declare-fun Z () Real )
(assert ( and 
(or ( <= ( + T1 97 ) T2 ) ( <= ( + T2 2 ) T1 ) )
(or ( <= ( + T1 113 )  ( + T2 2 ) ) ( <= ( + T2 101 )( + T1 97 ) ) )
(or ( <= ( + T1 210 )  ( + T2 101 ) ) ( <= ( + T2 188 )( + T1 113 ) ) )
(or ( <= ( + T1 281 )  ( + T2 188 ) ) ( <= ( + T2 273 )( + T1 210 ) ) )
(or ( <= ( + T1 327 )  ( + T2 273 ) ) ( <= ( + T2 359 )( + T1 281 ) ) )
(or ( <= ( + T1 394 )  ( + T2 359 ) ) ( <= ( + T2 456 )( + T1 327 ) ) )
(or ( <= ( + T1 437 )  ( + T2 456 ) ) ( <= ( + T2 471 )( + T1 394 ) ) )
(or ( <= ( + T1 536 )  ( + T2 471 ) ) ( <= ( + T2 483 )( + T1 437 ) ) )
(or ( <= ( + T1 553 )  ( + T2 483 ) ) ( <= ( + T2 500 )( + T1 536 ) ) )
(or ( <= ( + T1 633 )  ( + T2 500 ) ) ( <= ( + T2 575 )( + T1 553 ) ) )
(or ( <= ( + T1 700 )  ( + T2 575 ) ) ( <= ( + T2 638 )( + T1 633 ) ) )
(or ( <= ( + T1 769 )  ( + T2 638 ) ) ( <= ( + T2 657 )( + T1 700 ) ) )
(or ( <= ( + T1 97 ) T3 ) ( <= ( + T3 30 ) T1 ) )
(or ( <= ( + T1 113 )  ( + T3 30 ) ) ( <= ( + T3 51 )( + T1 97 ) ) )
(or ( <= ( + T1 210 )  ( + T3 51 ) ) ( <= ( + T3 76 )( + T1 113 ) ) )
(or ( <= ( + T1 281 )  ( + T3 76 ) ) ( <= ( + T3 121 )( + T1 210 ) ) )
(or ( <= ( + T1 327 )  ( + T3 121 ) ) ( <= ( + T3 196 )( + T1 281 ) ) )
(or ( <= ( + T1 394 )  ( + T3 196 ) ) ( <= ( + T3 293 )( + T1 327 ) ) )
(or ( <= ( + T1 437 )  ( + T3 293 ) ) ( <= ( + T3 325 )( + T1 394 ) ) )
(or ( <= ( + T1 536 )  ( + T3 325 ) ) ( <= ( + T3 397 )( + T1 437 ) ) )
(or ( <= ( + T1 553 )  ( + T3 397 ) ) ( <= ( + T3 462 )( + T1 536 ) ) )
(or ( <= ( + T1 633 )  ( + T3 462 ) ) ( <= ( + T3 542 )( + T1 553 ) ) )
(or ( <= ( + T1 700 )  ( + T3 542 ) ) ( <= ( + T3 636 )( + T1 633 ) ) )
(or ( <= ( + T1 769 )  ( + T3 636 ) ) ( <= ( + T3 646 )( + T1 700 ) ) )
(or ( <= ( + T1 97 ) T4 ) ( <= ( + T4 98 ) T1 ) )
(or ( <= ( + T1 113 )  ( + T4 98 ) ) ( <= ( + T4 134 )( + T1 97 ) ) )
(or ( <= ( + T1 210 )  ( + T4 134 ) ) ( <= ( + T4 194 )( + T1 113 ) ) )
(or ( <= ( + T1 281 )  ( + T4 194 ) ) ( <= ( + T4 209 )( + T1 210 ) ) )
(or ( <= ( + T1 327 )  ( + T4 209 ) ) ( <= ( + T4 225 )( + T1 281 ) ) )
(or ( <= ( + T1 394 )  ( + T4 225 ) ) ( <= ( + T4 304 )( + T1 327 ) ) )
(or ( <= ( + T1 437 )  ( + T4 304 ) ) ( <= ( + T4 339 )( + T1 394 ) ) )
(or ( <= ( + T1 536 )  ( + T4 339 ) ) ( <= ( + T4 408 )( + T1 437 ) ) )
(or ( <= ( + T1 553 )  ( + T4 408 ) ) ( <= ( + T4 485 )( + T1 536 ) ) )
(or ( <= ( + T1 633 )  ( + T4 485 ) ) ( <= ( + T4 558 )( + T1 553 ) ) )
(or ( <= ( + T1 700 )  ( + T4 558 ) ) ( <= ( + T4 612 )( + T1 633 ) ) )
(or ( <= ( + T1 769 )  ( + T4 612 ) ) ( <= ( + T4 674 )( + T1 700 ) ) )
(or ( <= ( + T1 97 ) T5 ) ( <= ( + T5 69 ) T1 ) )
(or ( <= ( + T1 113 )  ( + T5 69 ) ) ( <= ( + T5 89 )( + T1 97 ) ) )
(or ( <= ( + T1 210 )  ( + T5 89 ) ) ( <= ( + T5 162 )( + T1 113 ) ) )
(or ( <= ( + T1 281 )  ( + T5 162 ) ) ( <= ( + T5 247 )( + T1 210 ) ) )
(or ( <= ( + T1 327 )  ( + T5 247 ) ) ( <= ( + T5 293 )( + T1 281 ) ) )
(or ( <= ( + T1 394 )  ( + T5 293 ) ) ( <= ( + T5 380 )( + T1 327 ) ) )
(or ( <= ( + T1 437 )  ( + T5 380 ) ) ( <= ( + T5 435 )( + T1 394 ) ) )
(or ( <= ( + T1 536 )  ( + T5 435 ) ) ( <= ( + T5 510 )( + T1 437 ) ) )
(or ( <= ( + T1 553 )  ( + T5 510 ) ) ( <= ( + T5 517 )( + T1 536 ) ) )
(or ( <= ( + T1 633 )  ( + T5 517 ) ) ( <= ( + T5 596 )( + T1 553 ) ) )
(or ( <= ( + T1 700 )  ( + T5 596 ) ) ( <= ( + T5 668 )( + T1 633 ) ) )
(or ( <= ( + T1 769 )  ( + T5 668 ) ) ( <= ( + T5 702 )( + T1 700 ) ) )
(or ( <= ( + T1 97 ) T6 ) ( <= ( + T6 28 ) T1 ) )
(or ( <= ( + T1 113 )  ( + T6 28 ) ) ( <= ( + T6 83 )( + T1 97 ) ) )
(or ( <= ( + T1 210 )  ( + T6 83 ) ) ( <= ( + T6 88 )( + T1 113 ) ) )
(or ( <= ( + T1 281 )  ( + T6 88 ) ) ( <= ( + T6 180 )( + T1 210 ) ) )
(or ( <= ( + T1 327 )  ( + T6 180 ) ) ( <= ( + T6 214 )( + T1 281 ) ) )
(or ( <= ( + T1 394 )  ( + T6 214 ) ) ( <= ( + T6 264 )( + T1 327 ) ) )
(or ( <= ( + T1 437 )  ( + T6 264 ) ) ( <= ( + T6 265 )( + T1 394 ) ) )
(or ( <= ( + T1 536 )  ( + T6 265 ) ) ( <= ( + T6 297 )( + T1 437 ) ) )
(or ( <= ( + T1 553 )  ( + T6 297 ) ) ( <= ( + T6 382 )( + T1 536 ) ) )
(or ( <= ( + T1 633 )  ( + T6 382 ) ) ( <= ( + T6 395 )( + T1 553 ) ) )
(or ( <= ( + T1 700 )  ( + T6 395 ) ) ( <= ( + T6 493 )( + T1 633 ) ) )
(or ( <= ( + T1 769 )  ( + T6 493 ) ) ( <= ( + T6 545 )( + T1 700 ) ) )
(or ( <= ( + T1 97 ) T7 ) ( <= ( + T7 91 ) T1 ) )
(or ( <= ( + T1 113 )  ( + T7 91 ) ) ( <= ( + T7 175 )( + T1 97 ) ) )
(or ( <= ( + T1 210 )  ( + T7 175 ) ) ( <= ( + T7 196 )( + T1 113 ) ) )
(or ( <= ( + T1 281 )  ( + T7 196 ) ) ( <= ( + T7 263 )( + T1 210 ) ) )
(or ( <= ( + T1 327 )  ( + T7 263 ) ) ( <= ( + T7 319 )( + T1 281 ) ) )
(or ( <= ( + T1 394 )  ( + T7 319 ) ) ( <= ( + T7 393 )( + T1 327 ) ) )
(or ( <= ( + T1 437 )  ( + T7 393 ) ) ( <= ( + T7 421 )( + T1 394 ) ) )
(or ( <= ( + T1 536 )  ( + T7 421 ) ) ( <= ( + T7 446 )( + T1 437 ) ) )
(or ( <= ( + T1 553 )  ( + T7 446 ) ) ( <= ( + T7 491 )( + T1 536 ) ) )
(or ( <= ( + T1 633 )  ( + T7 491 ) ) ( <= ( + T7 544 )( + T1 553 ) ) )
(or ( <= ( + T1 700 )  ( + T7 544 ) ) ( <= ( + T7 605 )( + T1 633 ) ) )
(or ( <= ( + T1 769 )  ( + T7 605 ) ) ( <= ( + T7 696 )( + T1 700 ) ) )
(or ( <= ( + T1 97 ) T8 ) ( <= ( + T8 39 ) T1 ) )
(or ( <= ( + T1 113 )  ( + T8 39 ) ) ( <= ( + T8 55 )( + T1 97 ) ) )
(or ( <= ( + T1 210 )  ( + T8 55 ) ) ( <= ( + T8 72 )( + T1 113 ) ) )
(or ( <= ( + T1 281 )  ( + T8 72 ) ) ( <= ( + T8 118 )( + T1 210 ) ) )
(or ( <= ( + T1 327 )  ( + T8 118 ) ) ( <= ( + T8 164 )( + T1 281 ) ) )
(or ( <= ( + T1 394 )  ( + T8 164 ) ) ( <= ( + T8 204 )( + T1 327 ) ) )
(or ( <= ( + T1 437 )  ( + T8 204 ) ) ( <= ( + T8 283 )( + T1 394 ) ) )
(or ( <= ( + T1 536 )  ( + T8 283 ) ) ( <= ( + T8 356 )( + T1 437 ) ) )
(or ( <= ( + T1 553 )  ( + T8 356 ) ) ( <= ( + T8 450 )( + T1 536 ) ) )
(or ( <= ( + T1 633 )  ( + T8 450 ) ) ( <= ( + T8 485 )( + T1 553 ) ) )
(or ( <= ( + T1 700 )  ( + T8 485 ) ) ( <= ( + T8 501 )( + T1 633 ) ) )
(or ( <= ( + T1 769 )  ( + T8 501 ) ) ( <= ( + T8 581 )( + T1 700 ) ) )
(or ( <= ( + T1 97 ) T9 ) ( <= ( + T9 84 ) T1 ) )
(or ( <= ( + T1 113 )  ( + T9 84 ) ) ( <= ( + T9 153 )( + T1 97 ) ) )
(or ( <= ( + T1 210 )  ( + T9 153 ) ) ( <= ( + T9 216 )( + T1 113 ) ) )
(or ( <= ( + T1 281 )  ( + T9 216 ) ) ( <= ( + T9 236 )( + T1 210 ) ) )
(or ( <= ( + T1 327 )  ( + T9 236 ) ) ( <= ( + T9 317 )( + T1 281 ) ) )
(or ( <= ( + T1 394 )  ( + T9 317 ) ) ( <= ( + T9 329 )( + T1 327 ) ) )
(or ( <= ( + T1 437 )  ( + T9 329 ) ) ( <= ( + T9 401 )( + T1 394 ) ) )
(or ( <= ( + T1 536 )  ( + T9 401 ) ) ( <= ( + T9 472 )( + T1 437 ) ) )
(or ( <= ( + T1 553 )  ( + T9 472 ) ) ( <= ( + T9 567 )( + T1 536 ) ) )
(or ( <= ( + T1 633 )  ( + T9 567 ) ) ( <= ( + T9 611 )( + T1 553 ) ) )
(or ( <= ( + T1 700 )  ( + T9 611 ) ) ( <= ( + T9 648 )( + T1 633 ) ) )
(or ( <= ( + T1 769 )  ( + T9 648 ) ) ( <= ( + T9 698 )( + T1 700 ) ) )
(or ( <= ( + T1 97 ) T10 ) ( <= ( + T10 69 ) T1 ) )
(or ( <= ( + T1 113 )  ( + T10 69 ) ) ( <= ( + T10 85 )( + T1 97 ) ) )
(or ( <= ( + T1 210 )  ( + T10 85 ) ) ( <= ( + T10 111 )( + T1 113 ) ) )
(or ( <= ( + T1 281 )  ( + T10 111 ) ) ( <= ( + T10 124 )( + T1 210 ) ) )
(or ( <= ( + T1 327 )  ( + T10 124 ) ) ( <= ( + T10 192 )( + T1 281 ) ) )
(or ( <= ( + T1 394 )  ( + T10 192 ) ) ( <= ( + T10 231 )( + T1 327 ) ) )
(or ( <= ( + T1 437 )  ( + T10 231 ) ) ( <= ( + T10 234 )( + T1 394 ) ) )
(or ( <= ( + T1 536 )  ( + T10 234 ) ) ( <= ( + T10 241 )( + T1 437 ) ) )
(or ( <= ( + T1 553 )  ( + T10 241 ) ) ( <= ( + T10 247 )( + T1 536 ) ) )
(or ( <= ( + T1 633 )  ( + T10 247 ) ) ( <= ( + T10 319 )( + T1 553 ) ) )
(or ( <= ( + T1 700 )  ( + T10 319 ) ) ( <= ( + T10 323 )( + T1 633 ) ) )
(or ( <= ( + T1 769 )  ( + T10 323 ) ) ( <= ( + T10 374 )( + T1 700 ) ) )
(or ( <= ( + T2 2 ) T3 ) ( <= ( + T3 30 ) T2 ) )
(or ( <= ( + T2 101 )  ( + T3 30 ) ) ( <= ( + T3 51 )( + T2 2 ) ) )
(or ( <= ( + T2 188 )  ( + T3 51 ) ) ( <= ( + T3 76 )( + T2 101 ) ) )
(or ( <= ( + T2 273 )  ( + T3 76 ) ) ( <= ( + T3 121 )( + T2 188 ) ) )
(or ( <= ( + T2 359 )  ( + T3 121 ) ) ( <= ( + T3 196 )( + T2 273 ) ) )
(or ( <= ( + T2 456 )  ( + T3 196 ) ) ( <= ( + T3 293 )( + T2 359 ) ) )
(or ( <= ( + T2 471 )  ( + T3 293 ) ) ( <= ( + T3 325 )( + T2 456 ) ) )
(or ( <= ( + T2 483 )  ( + T3 325 ) ) ( <= ( + T3 397 )( + T2 471 ) ) )
(or ( <= ( + T2 500 )  ( + T3 397 ) ) ( <= ( + T3 462 )( + T2 483 ) ) )
(or ( <= ( + T2 575 )  ( + T3 462 ) ) ( <= ( + T3 542 )( + T2 500 ) ) )
(or ( <= ( + T2 638 )  ( + T3 542 ) ) ( <= ( + T3 636 )( + T2 575 ) ) )
(or ( <= ( + T2 657 )  ( + T3 636 ) ) ( <= ( + T3 646 )( + T2 638 ) ) )
(or ( <= ( + T2 2 ) T4 ) ( <= ( + T4 98 ) T2 ) )
(or ( <= ( + T2 101 )  ( + T4 98 ) ) ( <= ( + T4 134 )( + T2 2 ) ) )
(or ( <= ( + T2 188 )  ( + T4 134 ) ) ( <= ( + T4 194 )( + T2 101 ) ) )
(or ( <= ( + T2 273 )  ( + T4 194 ) ) ( <= ( + T4 209 )( + T2 188 ) ) )
(or ( <= ( + T2 359 )  ( + T4 209 ) ) ( <= ( + T4 225 )( + T2 273 ) ) )
(or ( <= ( + T2 456 )  ( + T4 225 ) ) ( <= ( + T4 304 )( + T2 359 ) ) )
(or ( <= ( + T2 471 )  ( + T4 304 ) ) ( <= ( + T4 339 )( + T2 456 ) ) )
(or ( <= ( + T2 483 )  ( + T4 339 ) ) ( <= ( + T4 408 )( + T2 471 ) ) )
(or ( <= ( + T2 500 )  ( + T4 408 ) ) ( <= ( + T4 485 )( + T2 483 ) ) )
(or ( <= ( + T2 575 )  ( + T4 485 ) ) ( <= ( + T4 558 )( + T2 500 ) ) )
(or ( <= ( + T2 638 )  ( + T4 558 ) ) ( <= ( + T4 612 )( + T2 575 ) ) )
(or ( <= ( + T2 657 )  ( + T4 612 ) ) ( <= ( + T4 674 )( + T2 638 ) ) )
(or ( <= ( + T2 2 ) T5 ) ( <= ( + T5 69 ) T2 ) )
(or ( <= ( + T2 101 )  ( + T5 69 ) ) ( <= ( + T5 89 )( + T2 2 ) ) )
(or ( <= ( + T2 188 )  ( + T5 89 ) ) ( <= ( + T5 162 )( + T2 101 ) ) )
(or ( <= ( + T2 273 )  ( + T5 162 ) ) ( <= ( + T5 247 )( + T2 188 ) ) )
(or ( <= ( + T2 359 )  ( + T5 247 ) ) ( <= ( + T5 293 )( + T2 273 ) ) )
(or ( <= ( + T2 456 )  ( + T5 293 ) ) ( <= ( + T5 380 )( + T2 359 ) ) )
(or ( <= ( + T2 471 )  ( + T5 380 ) ) ( <= ( + T5 435 )( + T2 456 ) ) )
(or ( <= ( + T2 483 )  ( + T5 435 ) ) ( <= ( + T5 510 )( + T2 471 ) ) )
(or ( <= ( + T2 500 )  ( + T5 510 ) ) ( <= ( + T5 517 )( + T2 483 ) ) )
(or ( <= ( + T2 575 )  ( + T5 517 ) ) ( <= ( + T5 596 )( + T2 500 ) ) )
(or ( <= ( + T2 638 )  ( + T5 596 ) ) ( <= ( + T5 668 )( + T2 575 ) ) )
(or ( <= ( + T2 657 )  ( + T5 668 ) ) ( <= ( + T5 702 )( + T2 638 ) ) )
(or ( <= ( + T2 2 ) T6 ) ( <= ( + T6 28 ) T2 ) )
(or ( <= ( + T2 101 )  ( + T6 28 ) ) ( <= ( + T6 83 )( + T2 2 ) ) )
(or ( <= ( + T2 188 )  ( + T6 83 ) ) ( <= ( + T6 88 )( + T2 101 ) ) )
(or ( <= ( + T2 273 )  ( + T6 88 ) ) ( <= ( + T6 180 )( + T2 188 ) ) )
(or ( <= ( + T2 359 )  ( + T6 180 ) ) ( <= ( + T6 214 )( + T2 273 ) ) )
(or ( <= ( + T2 456 )  ( + T6 214 ) ) ( <= ( + T6 264 )( + T2 359 ) ) )
(or ( <= ( + T2 471 )  ( + T6 264 ) ) ( <= ( + T6 265 )( + T2 456 ) ) )
(or ( <= ( + T2 483 )  ( + T6 265 ) ) ( <= ( + T6 297 )( + T2 471 ) ) )
(or ( <= ( + T2 500 )  ( + T6 297 ) ) ( <= ( + T6 382 )( + T2 483 ) ) )
(or ( <= ( + T2 575 )  ( + T6 382 ) ) ( <= ( + T6 395 )( + T2 500 ) ) )
(or ( <= ( + T2 638 )  ( + T6 395 ) ) ( <= ( + T6 493 )( + T2 575 ) ) )
(or ( <= ( + T2 657 )  ( + T6 493 ) ) ( <= ( + T6 545 )( + T2 638 ) ) )
(or ( <= ( + T2 2 ) T7 ) ( <= ( + T7 91 ) T2 ) )
(or ( <= ( + T2 101 )  ( + T7 91 ) ) ( <= ( + T7 175 )( + T2 2 ) ) )
(or ( <= ( + T2 188 )  ( + T7 175 ) ) ( <= ( + T7 196 )( + T2 101 ) ) )
(or ( <= ( + T2 273 )  ( + T7 196 ) ) ( <= ( + T7 263 )( + T2 188 ) ) )
(or ( <= ( + T2 359 )  ( + T7 263 ) ) ( <= ( + T7 319 )( + T2 273 ) ) )
(or ( <= ( + T2 456 )  ( + T7 319 ) ) ( <= ( + T7 393 )( + T2 359 ) ) )
(or ( <= ( + T2 471 )  ( + T7 393 ) ) ( <= ( + T7 421 )( + T2 456 ) ) )
(or ( <= ( + T2 483 )  ( + T7 421 ) ) ( <= ( + T7 446 )( + T2 471 ) ) )
(or ( <= ( + T2 500 )  ( + T7 446 ) ) ( <= ( + T7 491 )( + T2 483 ) ) )
(or ( <= ( + T2 575 )  ( + T7 491 ) ) ( <= ( + T7 544 )( + T2 500 ) ) )
(or ( <= ( + T2 638 )  ( + T7 544 ) ) ( <= ( + T7 605 )( + T2 575 ) ) )
(or ( <= ( + T2 657 )  ( + T7 605 ) ) ( <= ( + T7 696 )( + T2 638 ) ) )
(or ( <= ( + T2 2 ) T8 ) ( <= ( + T8 39 ) T2 ) )
(or ( <= ( + T2 101 )  ( + T8 39 ) ) ( <= ( + T8 55 )( + T2 2 ) ) )
(or ( <= ( + T2 188 )  ( + T8 55 ) ) ( <= ( + T8 72 )( + T2 101 ) ) )
(or ( <= ( + T2 273 )  ( + T8 72 ) ) ( <= ( + T8 118 )( + T2 188 ) ) )
(or ( <= ( + T2 359 )  ( + T8 118 ) ) ( <= ( + T8 164 )( + T2 273 ) ) )
(or ( <= ( + T2 456 )  ( + T8 164 ) ) ( <= ( + T8 204 )( + T2 359 ) ) )
(or ( <= ( + T2 471 )  ( + T8 204 ) ) ( <= ( + T8 283 )( + T2 456 ) ) )
(or ( <= ( + T2 483 )  ( + T8 283 ) ) ( <= ( + T8 356 )( + T2 471 ) ) )
(or ( <= ( + T2 500 )  ( + T8 356 ) ) ( <= ( + T8 450 )( + T2 483 ) ) )
(or ( <= ( + T2 575 )  ( + T8 450 ) ) ( <= ( + T8 485 )( + T2 500 ) ) )
(or ( <= ( + T2 638 )  ( + T8 485 ) ) ( <= ( + T8 501 )( + T2 575 ) ) )
(or ( <= ( + T2 657 )  ( + T8 501 ) ) ( <= ( + T8 581 )( + T2 638 ) ) )
(or ( <= ( + T2 2 ) T9 ) ( <= ( + T9 84 ) T2 ) )
(or ( <= ( + T2 101 )  ( + T9 84 ) ) ( <= ( + T9 153 )( + T2 2 ) ) )
(or ( <= ( + T2 188 )  ( + T9 153 ) ) ( <= ( + T9 216 )( + T2 101 ) ) )
(or ( <= ( + T2 273 )  ( + T9 216 ) ) ( <= ( + T9 236 )( + T2 188 ) ) )
(or ( <= ( + T2 359 )  ( + T9 236 ) ) ( <= ( + T9 317 )( + T2 273 ) ) )
(or ( <= ( + T2 456 )  ( + T9 317 ) ) ( <= ( + T9 329 )( + T2 359 ) ) )
(or ( <= ( + T2 471 )  ( + T9 329 ) ) ( <= ( + T9 401 )( + T2 456 ) ) )
(or ( <= ( + T2 483 )  ( + T9 401 ) ) ( <= ( + T9 472 )( + T2 471 ) ) )
(or ( <= ( + T2 500 )  ( + T9 472 ) ) ( <= ( + T9 567 )( + T2 483 ) ) )
(or ( <= ( + T2 575 )  ( + T9 567 ) ) ( <= ( + T9 611 )( + T2 500 ) ) )
(or ( <= ( + T2 638 )  ( + T9 611 ) ) ( <= ( + T9 648 )( + T2 575 ) ) )
(or ( <= ( + T2 657 )  ( + T9 648 ) ) ( <= ( + T9 698 )( + T2 638 ) ) )
(or ( <= ( + T2 2 ) T10 ) ( <= ( + T10 69 ) T2 ) )
(or ( <= ( + T2 101 )  ( + T10 69 ) ) ( <= ( + T10 85 )( + T2 2 ) ) )
(or ( <= ( + T2 188 )  ( + T10 85 ) ) ( <= ( + T10 111 )( + T2 101 ) ) )
(or ( <= ( + T2 273 )  ( + T10 111 ) ) ( <= ( + T10 124 )( + T2 188 ) ) )
(or ( <= ( + T2 359 )  ( + T10 124 ) ) ( <= ( + T10 192 )( + T2 273 ) ) )
(or ( <= ( + T2 456 )  ( + T10 192 ) ) ( <= ( + T10 231 )( + T2 359 ) ) )
(or ( <= ( + T2 471 )  ( + T10 231 ) ) ( <= ( + T10 234 )( + T2 456 ) ) )
(or ( <= ( + T2 483 )  ( + T10 234 ) ) ( <= ( + T10 241 )( + T2 471 ) ) )
(or ( <= ( + T2 500 )  ( + T10 241 ) ) ( <= ( + T10 247 )( + T2 483 ) ) )
(or ( <= ( + T2 575 )  ( + T10 247 ) ) ( <= ( + T10 319 )( + T2 500 ) ) )
(or ( <= ( + T2 638 )  ( + T10 319 ) ) ( <= ( + T10 323 )( + T2 575 ) ) )
(or ( <= ( + T2 657 )  ( + T10 323 ) ) ( <= ( + T10 374 )( + T2 638 ) ) )
(or ( <= ( + T3 30 ) T4 ) ( <= ( + T4 98 ) T3 ) )
(or ( <= ( + T3 51 )  ( + T4 98 ) ) ( <= ( + T4 134 )( + T3 30 ) ) )
(or ( <= ( + T3 76 )  ( + T4 134 ) ) ( <= ( + T4 194 )( + T3 51 ) ) )
(or ( <= ( + T3 121 )  ( + T4 194 ) ) ( <= ( + T4 209 )( + T3 76 ) ) )
(or ( <= ( + T3 196 )  ( + T4 209 ) ) ( <= ( + T4 225 )( + T3 121 ) ) )
(or ( <= ( + T3 293 )  ( + T4 225 ) ) ( <= ( + T4 304 )( + T3 196 ) ) )
(or ( <= ( + T3 325 )  ( + T4 304 ) ) ( <= ( + T4 339 )( + T3 293 ) ) )
(or ( <= ( + T3 397 )  ( + T4 339 ) ) ( <= ( + T4 408 )( + T3 325 ) ) )
(or ( <= ( + T3 462 )  ( + T4 408 ) ) ( <= ( + T4 485 )( + T3 397 ) ) )
(or ( <= ( + T3 542 )  ( + T4 485 ) ) ( <= ( + T4 558 )( + T3 462 ) ) )
(or ( <= ( + T3 636 )  ( + T4 558 ) ) ( <= ( + T4 612 )( + T3 542 ) ) )
(or ( <= ( + T3 646 )  ( + T4 612 ) ) ( <= ( + T4 674 )( + T3 636 ) ) )
(or ( <= ( + T3 30 ) T5 ) ( <= ( + T5 69 ) T3 ) )
(or ( <= ( + T3 51 )  ( + T5 69 ) ) ( <= ( + T5 89 )( + T3 30 ) ) )
(or ( <= ( + T3 76 )  ( + T5 89 ) ) ( <= ( + T5 162 )( + T3 51 ) ) )
(or ( <= ( + T3 121 )  ( + T5 162 ) ) ( <= ( + T5 247 )( + T3 76 ) ) )
(or ( <= ( + T3 196 )  ( + T5 247 ) ) ( <= ( + T5 293 )( + T3 121 ) ) )
(or ( <= ( + T3 293 )  ( + T5 293 ) ) ( <= ( + T5 380 )( + T3 196 ) ) )
(or ( <= ( + T3 325 )  ( + T5 380 ) ) ( <= ( + T5 435 )( + T3 293 ) ) )
(or ( <= ( + T3 397 )  ( + T5 435 ) ) ( <= ( + T5 510 )( + T3 325 ) ) )
(or ( <= ( + T3 462 )  ( + T5 510 ) ) ( <= ( + T5 517 )( + T3 397 ) ) )
(or ( <= ( + T3 542 )  ( + T5 517 ) ) ( <= ( + T5 596 )( + T3 462 ) ) )
(or ( <= ( + T3 636 )  ( + T5 596 ) ) ( <= ( + T5 668 )( + T3 542 ) ) )
(or ( <= ( + T3 646 )  ( + T5 668 ) ) ( <= ( + T5 702 )( + T3 636 ) ) )
(or ( <= ( + T3 30 ) T6 ) ( <= ( + T6 28 ) T3 ) )
(or ( <= ( + T3 51 )  ( + T6 28 ) ) ( <= ( + T6 83 )( + T3 30 ) ) )
(or ( <= ( + T3 76 )  ( + T6 83 ) ) ( <= ( + T6 88 )( + T3 51 ) ) )
(or ( <= ( + T3 121 )  ( + T6 88 ) ) ( <= ( + T6 180 )( + T3 76 ) ) )
(or ( <= ( + T3 196 )  ( + T6 180 ) ) ( <= ( + T6 214 )( + T3 121 ) ) )
(or ( <= ( + T3 293 )  ( + T6 214 ) ) ( <= ( + T6 264 )( + T3 196 ) ) )
(or ( <= ( + T3 325 )  ( + T6 264 ) ) ( <= ( + T6 265 )( + T3 293 ) ) )
(or ( <= ( + T3 397 )  ( + T6 265 ) ) ( <= ( + T6 297 )( + T3 325 ) ) )
(or ( <= ( + T3 462 )  ( + T6 297 ) ) ( <= ( + T6 382 )( + T3 397 ) ) )
(or ( <= ( + T3 542 )  ( + T6 382 ) ) ( <= ( + T6 395 )( + T3 462 ) ) )
(or ( <= ( + T3 636 )  ( + T6 395 ) ) ( <= ( + T6 493 )( + T3 542 ) ) )
(or ( <= ( + T3 646 )  ( + T6 493 ) ) ( <= ( + T6 545 )( + T3 636 ) ) )
(or ( <= ( + T3 30 ) T7 ) ( <= ( + T7 91 ) T3 ) )
(or ( <= ( + T3 51 )  ( + T7 91 ) ) ( <= ( + T7 175 )( + T3 30 ) ) )
(or ( <= ( + T3 76 )  ( + T7 175 ) ) ( <= ( + T7 196 )( + T3 51 ) ) )
(or ( <= ( + T3 121 )  ( + T7 196 ) ) ( <= ( + T7 263 )( + T3 76 ) ) )
(or ( <= ( + T3 196 )  ( + T7 263 ) ) ( <= ( + T7 319 )( + T3 121 ) ) )
(or ( <= ( + T3 293 )  ( + T7 319 ) ) ( <= ( + T7 393 )( + T3 196 ) ) )
(or ( <= ( + T3 325 )  ( + T7 393 ) ) ( <= ( + T7 421 )( + T3 293 ) ) )
(or ( <= ( + T3 397 )  ( + T7 421 ) ) ( <= ( + T7 446 )( + T3 325 ) ) )
(or ( <= ( + T3 462 )  ( + T7 446 ) ) ( <= ( + T7 491 )( + T3 397 ) ) )
(or ( <= ( + T3 542 )  ( + T7 491 ) ) ( <= ( + T7 544 )( + T3 462 ) ) )
(or ( <= ( + T3 636 )  ( + T7 544 ) ) ( <= ( + T7 605 )( + T3 542 ) ) )
(or ( <= ( + T3 646 )  ( + T7 605 ) ) ( <= ( + T7 696 )( + T3 636 ) ) )
(or ( <= ( + T3 30 ) T8 ) ( <= ( + T8 39 ) T3 ) )
(or ( <= ( + T3 51 )  ( + T8 39 ) ) ( <= ( + T8 55 )( + T3 30 ) ) )
(or ( <= ( + T3 76 )  ( + T8 55 ) ) ( <= ( + T8 72 )( + T3 51 ) ) )
(or ( <= ( + T3 121 )  ( + T8 72 ) ) ( <= ( + T8 118 )( + T3 76 ) ) )
(or ( <= ( + T3 196 )  ( + T8 118 ) ) ( <= ( + T8 164 )( + T3 121 ) ) )
(or ( <= ( + T3 293 )  ( + T8 164 ) ) ( <= ( + T8 204 )( + T3 196 ) ) )
(or ( <= ( + T3 325 )  ( + T8 204 ) ) ( <= ( + T8 283 )( + T3 293 ) ) )
(or ( <= ( + T3 397 )  ( + T8 283 ) ) ( <= ( + T8 356 )( + T3 325 ) ) )
(or ( <= ( + T3 462 )  ( + T8 356 ) ) ( <= ( + T8 450 )( + T3 397 ) ) )
(or ( <= ( + T3 542 )  ( + T8 450 ) ) ( <= ( + T8 485 )( + T3 462 ) ) )
(or ( <= ( + T3 636 )  ( + T8 485 ) ) ( <= ( + T8 501 )( + T3 542 ) ) )
(or ( <= ( + T3 646 )  ( + T8 501 ) ) ( <= ( + T8 581 )( + T3 636 ) ) )
(or ( <= ( + T3 30 ) T9 ) ( <= ( + T9 84 ) T3 ) )
(or ( <= ( + T3 51 )  ( + T9 84 ) ) ( <= ( + T9 153 )( + T3 30 ) ) )
(or ( <= ( + T3 76 )  ( + T9 153 ) ) ( <= ( + T9 216 )( + T3 51 ) ) )
(or ( <= ( + T3 121 )  ( + T9 216 ) ) ( <= ( + T9 236 )( + T3 76 ) ) )
(or ( <= ( + T3 196 )  ( + T9 236 ) ) ( <= ( + T9 317 )( + T3 121 ) ) )
(or ( <= ( + T3 293 )  ( + T9 317 ) ) ( <= ( + T9 329 )( + T3 196 ) ) )
(or ( <= ( + T3 325 )  ( + T9 329 ) ) ( <= ( + T9 401 )( + T3 293 ) ) )
(or ( <= ( + T3 397 )  ( + T9 401 ) ) ( <= ( + T9 472 )( + T3 325 ) ) )
(or ( <= ( + T3 462 )  ( + T9 472 ) ) ( <= ( + T9 567 )( + T3 397 ) ) )
(or ( <= ( + T3 542 )  ( + T9 567 ) ) ( <= ( + T9 611 )( + T3 462 ) ) )
(or ( <= ( + T3 636 )  ( + T9 611 ) ) ( <= ( + T9 648 )( + T3 542 ) ) )
(or ( <= ( + T3 646 )  ( + T9 648 ) ) ( <= ( + T9 698 )( + T3 636 ) ) )
(or ( <= ( + T3 30 ) T10 ) ( <= ( + T10 69 ) T3 ) )
(or ( <= ( + T3 51 )  ( + T10 69 ) ) ( <= ( + T10 85 )( + T3 30 ) ) )
(or ( <= ( + T3 76 )  ( + T10 85 ) ) ( <= ( + T10 111 )( + T3 51 ) ) )
(or ( <= ( + T3 121 )  ( + T10 111 ) ) ( <= ( + T10 124 )( + T3 76 ) ) )
(or ( <= ( + T3 196 )  ( + T10 124 ) ) ( <= ( + T10 192 )( + T3 121 ) ) )
(or ( <= ( + T3 293 )  ( + T10 192 ) ) ( <= ( + T10 231 )( + T3 196 ) ) )
(or ( <= ( + T3 325 )  ( + T10 231 ) ) ( <= ( + T10 234 )( + T3 293 ) ) )
(or ( <= ( + T3 397 )  ( + T10 234 ) ) ( <= ( + T10 241 )( + T3 325 ) ) )
(or ( <= ( + T3 462 )  ( + T10 241 ) ) ( <= ( + T10 247 )( + T3 397 ) ) )
(or ( <= ( + T3 542 )  ( + T10 247 ) ) ( <= ( + T10 319 )( + T3 462 ) ) )
(or ( <= ( + T3 636 )  ( + T10 319 ) ) ( <= ( + T10 323 )( + T3 542 ) ) )
(or ( <= ( + T3 646 )  ( + T10 323 ) ) ( <= ( + T10 374 )( + T3 636 ) ) )
(or ( <= ( + T4 98 ) T5 ) ( <= ( + T5 69 ) T4 ) )
(or ( <= ( + T4 134 )  ( + T5 69 ) ) ( <= ( + T5 89 )( + T4 98 ) ) )
(or ( <= ( + T4 194 )  ( + T5 89 ) ) ( <= ( + T5 162 )( + T4 134 ) ) )
(or ( <= ( + T4 209 )  ( + T5 162 ) ) ( <= ( + T5 247 )( + T4 194 ) ) )
(or ( <= ( + T4 225 )  ( + T5 247 ) ) ( <= ( + T5 293 )( + T4 209 ) ) )
(or ( <= ( + T4 304 )  ( + T5 293 ) ) ( <= ( + T5 380 )( + T4 225 ) ) )
(or ( <= ( + T4 339 )  ( + T5 380 ) ) ( <= ( + T5 435 )( + T4 304 ) ) )
(or ( <= ( + T4 408 )  ( + T5 435 ) ) ( <= ( + T5 510 )( + T4 339 ) ) )
(or ( <= ( + T4 485 )  ( + T5 510 ) ) ( <= ( + T5 517 )( + T4 408 ) ) )
(or ( <= ( + T4 558 )  ( + T5 517 ) ) ( <= ( + T5 596 )( + T4 485 ) ) )
(or ( <= ( + T4 612 )  ( + T5 596 ) ) ( <= ( + T5 668 )( + T4 558 ) ) )
(or ( <= ( + T4 674 )  ( + T5 668 ) ) ( <= ( + T5 702 )( + T4 612 ) ) )
(or ( <= ( + T4 98 ) T6 ) ( <= ( + T6 28 ) T4 ) )
(or ( <= ( + T4 134 )  ( + T6 28 ) ) ( <= ( + T6 83 )( + T4 98 ) ) )
(or ( <= ( + T4 194 )  ( + T6 83 ) ) ( <= ( + T6 88 )( + T4 134 ) ) )
(or ( <= ( + T4 209 )  ( + T6 88 ) ) ( <= ( + T6 180 )( + T4 194 ) ) )
(or ( <= ( + T4 225 )  ( + T6 180 ) ) ( <= ( + T6 214 )( + T4 209 ) ) )
(or ( <= ( + T4 304 )  ( + T6 214 ) ) ( <= ( + T6 264 )( + T4 225 ) ) )
(or ( <= ( + T4 339 )  ( + T6 264 ) ) ( <= ( + T6 265 )( + T4 304 ) ) )
(or ( <= ( + T4 408 )  ( + T6 265 ) ) ( <= ( + T6 297 )( + T4 339 ) ) )
(or ( <= ( + T4 485 )  ( + T6 297 ) ) ( <= ( + T6 382 )( + T4 408 ) ) )
(or ( <= ( + T4 558 )  ( + T6 382 ) ) ( <= ( + T6 395 )( + T4 485 ) ) )
(or ( <= ( + T4 612 )  ( + T6 395 ) ) ( <= ( + T6 493 )( + T4 558 ) ) )
(or ( <= ( + T4 674 )  ( + T6 493 ) ) ( <= ( + T6 545 )( + T4 612 ) ) )
(or ( <= ( + T4 98 ) T7 ) ( <= ( + T7 91 ) T4 ) )
(or ( <= ( + T4 134 )  ( + T7 91 ) ) ( <= ( + T7 175 )( + T4 98 ) ) )
(or ( <= ( + T4 194 )  ( + T7 175 ) ) ( <= ( + T7 196 )( + T4 134 ) ) )
(or ( <= ( + T4 209 )  ( + T7 196 ) ) ( <= ( + T7 263 )( + T4 194 ) ) )
(or ( <= ( + T4 225 )  ( + T7 263 ) ) ( <= ( + T7 319 )( + T4 209 ) ) )
(or ( <= ( + T4 304 )  ( + T7 319 ) ) ( <= ( + T7 393 )( + T4 225 ) ) )
(or ( <= ( + T4 339 )  ( + T7 393 ) ) ( <= ( + T7 421 )( + T4 304 ) ) )
(or ( <= ( + T4 408 )  ( + T7 421 ) ) ( <= ( + T7 446 )( + T4 339 ) ) )
(or ( <= ( + T4 485 )  ( + T7 446 ) ) ( <= ( + T7 491 )( + T4 408 ) ) )
(or ( <= ( + T4 558 )  ( + T7 491 ) ) ( <= ( + T7 544 )( + T4 485 ) ) )
(or ( <= ( + T4 612 )  ( + T7 544 ) ) ( <= ( + T7 605 )( + T4 558 ) ) )
(or ( <= ( + T4 674 )  ( + T7 605 ) ) ( <= ( + T7 696 )( + T4 612 ) ) )
(or ( <= ( + T4 98 ) T8 ) ( <= ( + T8 39 ) T4 ) )
(or ( <= ( + T4 134 )  ( + T8 39 ) ) ( <= ( + T8 55 )( + T4 98 ) ) )
(or ( <= ( + T4 194 )  ( + T8 55 ) ) ( <= ( + T8 72 )( + T4 134 ) ) )
(or ( <= ( + T4 209 )  ( + T8 72 ) ) ( <= ( + T8 118 )( + T4 194 ) ) )
(or ( <= ( + T4 225 )  ( + T8 118 ) ) ( <= ( + T8 164 )( + T4 209 ) ) )
(or ( <= ( + T4 304 )  ( + T8 164 ) ) ( <= ( + T8 204 )( + T4 225 ) ) )
(or ( <= ( + T4 339 )  ( + T8 204 ) ) ( <= ( + T8 283 )( + T4 304 ) ) )
(or ( <= ( + T4 408 )  ( + T8 283 ) ) ( <= ( + T8 356 )( + T4 339 ) ) )
(or ( <= ( + T4 485 )  ( + T8 356 ) ) ( <= ( + T8 450 )( + T4 408 ) ) )
(or ( <= ( + T4 558 )  ( + T8 450 ) ) ( <= ( + T8 485 )( + T4 485 ) ) )
(or ( <= ( + T4 612 )  ( + T8 485 ) ) ( <= ( + T8 501 )( + T4 558 ) ) )
(or ( <= ( + T4 674 )  ( + T8 501 ) ) ( <= ( + T8 581 )( + T4 612 ) ) )
(or ( <= ( + T4 98 ) T9 ) ( <= ( + T9 84 ) T4 ) )
(or ( <= ( + T4 134 )  ( + T9 84 ) ) ( <= ( + T9 153 )( + T4 98 ) ) )
(or ( <= ( + T4 194 )  ( + T9 153 ) ) ( <= ( + T9 216 )( + T4 134 ) ) )
(or ( <= ( + T4 209 )  ( + T9 216 ) ) ( <= ( + T9 236 )( + T4 194 ) ) )
(or ( <= ( + T4 225 )  ( + T9 236 ) ) ( <= ( + T9 317 )( + T4 209 ) ) )
(or ( <= ( + T4 304 )  ( + T9 317 ) ) ( <= ( + T9 329 )( + T4 225 ) ) )
(or ( <= ( + T4 339 )  ( + T9 329 ) ) ( <= ( + T9 401 )( + T4 304 ) ) )
(or ( <= ( + T4 408 )  ( + T9 401 ) ) ( <= ( + T9 472 )( + T4 339 ) ) )
(or ( <= ( + T4 485 )  ( + T9 472 ) ) ( <= ( + T9 567 )( + T4 408 ) ) )
(or ( <= ( + T4 558 )  ( + T9 567 ) ) ( <= ( + T9 611 )( + T4 485 ) ) )
(or ( <= ( + T4 612 )  ( + T9 611 ) ) ( <= ( + T9 648 )( + T4 558 ) ) )
(or ( <= ( + T4 674 )  ( + T9 648 ) ) ( <= ( + T9 698 )( + T4 612 ) ) )
(or ( <= ( + T4 98 ) T10 ) ( <= ( + T10 69 ) T4 ) )
(or ( <= ( + T4 134 )  ( + T10 69 ) ) ( <= ( + T10 85 )( + T4 98 ) ) )
(or ( <= ( + T4 194 )  ( + T10 85 ) ) ( <= ( + T10 111 )( + T4 134 ) ) )
(or ( <= ( + T4 209 )  ( + T10 111 ) ) ( <= ( + T10 124 )( + T4 194 ) ) )
(or ( <= ( + T4 225 )  ( + T10 124 ) ) ( <= ( + T10 192 )( + T4 209 ) ) )
(or ( <= ( + T4 304 )  ( + T10 192 ) ) ( <= ( + T10 231 )( + T4 225 ) ) )
(or ( <= ( + T4 339 )  ( + T10 231 ) ) ( <= ( + T10 234 )( + T4 304 ) ) )
(or ( <= ( + T4 408 )  ( + T10 234 ) ) ( <= ( + T10 241 )( + T4 339 ) ) )
(or ( <= ( + T4 485 )  ( + T10 241 ) ) ( <= ( + T10 247 )( + T4 408 ) ) )
(or ( <= ( + T4 558 )  ( + T10 247 ) ) ( <= ( + T10 319 )( + T4 485 ) ) )
(or ( <= ( + T4 612 )  ( + T10 319 ) ) ( <= ( + T10 323 )( + T4 558 ) ) )
(or ( <= ( + T4 674 )  ( + T10 323 ) ) ( <= ( + T10 374 )( + T4 612 ) ) )
(or ( <= ( + T5 69 ) T6 ) ( <= ( + T6 28 ) T5 ) )
(or ( <= ( + T5 89 )  ( + T6 28 ) ) ( <= ( + T6 83 )( + T5 69 ) ) )
(or ( <= ( + T5 162 )  ( + T6 83 ) ) ( <= ( + T6 88 )( + T5 89 ) ) )
(or ( <= ( + T5 247 )  ( + T6 88 ) ) ( <= ( + T6 180 )( + T5 162 ) ) )
(or ( <= ( + T5 293 )  ( + T6 180 ) ) ( <= ( + T6 214 )( + T5 247 ) ) )
(or ( <= ( + T5 380 )  ( + T6 214 ) ) ( <= ( + T6 264 )( + T5 293 ) ) )
(or ( <= ( + T5 435 )  ( + T6 264 ) ) ( <= ( + T6 265 )( + T5 380 ) ) )
(or ( <= ( + T5 510 )  ( + T6 265 ) ) ( <= ( + T6 297 )( + T5 435 ) ) )
(or ( <= ( + T5 517 )  ( + T6 297 ) ) ( <= ( + T6 382 )( + T5 510 ) ) )
(or ( <= ( + T5 596 )  ( + T6 382 ) ) ( <= ( + T6 395 )( + T5 517 ) ) )
(or ( <= ( + T5 668 )  ( + T6 395 ) ) ( <= ( + T6 493 )( + T5 596 ) ) )
(or ( <= ( + T5 702 )  ( + T6 493 ) ) ( <= ( + T6 545 )( + T5 668 ) ) )
(or ( <= ( + T5 69 ) T7 ) ( <= ( + T7 91 ) T5 ) )
(or ( <= ( + T5 89 )  ( + T7 91 ) ) ( <= ( + T7 175 )( + T5 69 ) ) )
(or ( <= ( + T5 162 )  ( + T7 175 ) ) ( <= ( + T7 196 )( + T5 89 ) ) )
(or ( <= ( + T5 247 )  ( + T7 196 ) ) ( <= ( + T7 263 )( + T5 162 ) ) )
(or ( <= ( + T5 293 )  ( + T7 263 ) ) ( <= ( + T7 319 )( + T5 247 ) ) )
(or ( <= ( + T5 380 )  ( + T7 319 ) ) ( <= ( + T7 393 )( + T5 293 ) ) )
(or ( <= ( + T5 435 )  ( + T7 393 ) ) ( <= ( + T7 421 )( + T5 380 ) ) )
(or ( <= ( + T5 510 )  ( + T7 421 ) ) ( <= ( + T7 446 )( + T5 435 ) ) )
(or ( <= ( + T5 517 )  ( + T7 446 ) ) ( <= ( + T7 491 )( + T5 510 ) ) )
(or ( <= ( + T5 596 )  ( + T7 491 ) ) ( <= ( + T7 544 )( + T5 517 ) ) )
(or ( <= ( + T5 668 )  ( + T7 544 ) ) ( <= ( + T7 605 )( + T5 596 ) ) )
(or ( <= ( + T5 702 )  ( + T7 605 ) ) ( <= ( + T7 696 )( + T5 668 ) ) )
(or ( <= ( + T5 69 ) T8 ) ( <= ( + T8 39 ) T5 ) )
(or ( <= ( + T5 89 )  ( + T8 39 ) ) ( <= ( + T8 55 )( + T5 69 ) ) )
(or ( <= ( + T5 162 )  ( + T8 55 ) ) ( <= ( + T8 72 )( + T5 89 ) ) )
(or ( <= ( + T5 247 )  ( + T8 72 ) ) ( <= ( + T8 118 )( + T5 162 ) ) )
(or ( <= ( + T5 293 )  ( + T8 118 ) ) ( <= ( + T8 164 )( + T5 247 ) ) )
(or ( <= ( + T5 380 )  ( + T8 164 ) ) ( <= ( + T8 204 )( + T5 293 ) ) )
(or ( <= ( + T5 435 )  ( + T8 204 ) ) ( <= ( + T8 283 )( + T5 380 ) ) )
(or ( <= ( + T5 510 )  ( + T8 283 ) ) ( <= ( + T8 356 )( + T5 435 ) ) )
(or ( <= ( + T5 517 )  ( + T8 356 ) ) ( <= ( + T8 450 )( + T5 510 ) ) )
(or ( <= ( + T5 596 )  ( + T8 450 ) ) ( <= ( + T8 485 )( + T5 517 ) ) )
(or ( <= ( + T5 668 )  ( + T8 485 ) ) ( <= ( + T8 501 )( + T5 596 ) ) )
(or ( <= ( + T5 702 )  ( + T8 501 ) ) ( <= ( + T8 581 )( + T5 668 ) ) )
(or ( <= ( + T5 69 ) T9 ) ( <= ( + T9 84 ) T5 ) )
(or ( <= ( + T5 89 )  ( + T9 84 ) ) ( <= ( + T9 153 )( + T5 69 ) ) )
(or ( <= ( + T5 162 )  ( + T9 153 ) ) ( <= ( + T9 216 )( + T5 89 ) ) )
(or ( <= ( + T5 247 )  ( + T9 216 ) ) ( <= ( + T9 236 )( + T5 162 ) ) )
(or ( <= ( + T5 293 )  ( + T9 236 ) ) ( <= ( + T9 317 )( + T5 247 ) ) )
(or ( <= ( + T5 380 )  ( + T9 317 ) ) ( <= ( + T9 329 )( + T5 293 ) ) )
(or ( <= ( + T5 435 )  ( + T9 329 ) ) ( <= ( + T9 401 )( + T5 380 ) ) )
(or ( <= ( + T5 510 )  ( + T9 401 ) ) ( <= ( + T9 472 )( + T5 435 ) ) )
(or ( <= ( + T5 517 )  ( + T9 472 ) ) ( <= ( + T9 567 )( + T5 510 ) ) )
(or ( <= ( + T5 596 )  ( + T9 567 ) ) ( <= ( + T9 611 )( + T5 517 ) ) )
(or ( <= ( + T5 668 )  ( + T9 611 ) ) ( <= ( + T9 648 )( + T5 596 ) ) )
(or ( <= ( + T5 702 )  ( + T9 648 ) ) ( <= ( + T9 698 )( + T5 668 ) ) )
(or ( <= ( + T5 69 ) T10 ) ( <= ( + T10 69 ) T5 ) )
(or ( <= ( + T5 89 )  ( + T10 69 ) ) ( <= ( + T10 85 )( + T5 69 ) ) )
(or ( <= ( + T5 162 )  ( + T10 85 ) ) ( <= ( + T10 111 )( + T5 89 ) ) )
(or ( <= ( + T5 247 )  ( + T10 111 ) ) ( <= ( + T10 124 )( + T5 162 ) ) )
(or ( <= ( + T5 293 )  ( + T10 124 ) ) ( <= ( + T10 192 )( + T5 247 ) ) )
(or ( <= ( + T5 380 )  ( + T10 192 ) ) ( <= ( + T10 231 )( + T5 293 ) ) )
(or ( <= ( + T5 435 )  ( + T10 231 ) ) ( <= ( + T10 234 )( + T5 380 ) ) )
(or ( <= ( + T5 510 )  ( + T10 234 ) ) ( <= ( + T10 241 )( + T5 435 ) ) )
(or ( <= ( + T5 517 )  ( + T10 241 ) ) ( <= ( + T10 247 )( + T5 510 ) ) )
(or ( <= ( + T5 596 )  ( + T10 247 ) ) ( <= ( + T10 319 )( + T5 517 ) ) )
(or ( <= ( + T5 668 )  ( + T10 319 ) ) ( <= ( + T10 323 )( + T5 596 ) ) )
(or ( <= ( + T5 702 )  ( + T10 323 ) ) ( <= ( + T10 374 )( + T5 668 ) ) )
(or ( <= ( + T6 28 ) T7 ) ( <= ( + T7 91 ) T6 ) )
(or ( <= ( + T6 83 )  ( + T7 91 ) ) ( <= ( + T7 175 )( + T6 28 ) ) )
(or ( <= ( + T6 88 )  ( + T7 175 ) ) ( <= ( + T7 196 )( + T6 83 ) ) )
(or ( <= ( + T6 180 )  ( + T7 196 ) ) ( <= ( + T7 263 )( + T6 88 ) ) )
(or ( <= ( + T6 214 )  ( + T7 263 ) ) ( <= ( + T7 319 )( + T6 180 ) ) )
(or ( <= ( + T6 264 )  ( + T7 319 ) ) ( <= ( + T7 393 )( + T6 214 ) ) )
(or ( <= ( + T6 265 )  ( + T7 393 ) ) ( <= ( + T7 421 )( + T6 264 ) ) )
(or ( <= ( + T6 297 )  ( + T7 421 ) ) ( <= ( + T7 446 )( + T6 265 ) ) )
(or ( <= ( + T6 382 )  ( + T7 446 ) ) ( <= ( + T7 491 )( + T6 297 ) ) )
(or ( <= ( + T6 395 )  ( + T7 491 ) ) ( <= ( + T7 544 )( + T6 382 ) ) )
(or ( <= ( + T6 493 )  ( + T7 544 ) ) ( <= ( + T7 605 )( + T6 395 ) ) )
(or ( <= ( + T6 545 )  ( + T7 605 ) ) ( <= ( + T7 696 )( + T6 493 ) ) )
(or ( <= ( + T6 28 ) T8 ) ( <= ( + T8 39 ) T6 ) )
(or ( <= ( + T6 83 )  ( + T8 39 ) ) ( <= ( + T8 55 )( + T6 28 ) ) )
(or ( <= ( + T6 88 )  ( + T8 55 ) ) ( <= ( + T8 72 )( + T6 83 ) ) )
(or ( <= ( + T6 180 )  ( + T8 72 ) ) ( <= ( + T8 118 )( + T6 88 ) ) )
(or ( <= ( + T6 214 )  ( + T8 118 ) ) ( <= ( + T8 164 )( + T6 180 ) ) )
(or ( <= ( + T6 264 )  ( + T8 164 ) ) ( <= ( + T8 204 )( + T6 214 ) ) )
(or ( <= ( + T6 265 )  ( + T8 204 ) ) ( <= ( + T8 283 )( + T6 264 ) ) )
(or ( <= ( + T6 297 )  ( + T8 283 ) ) ( <= ( + T8 356 )( + T6 265 ) ) )
(or ( <= ( + T6 382 )  ( + T8 356 ) ) ( <= ( + T8 450 )( + T6 297 ) ) )
(or ( <= ( + T6 395 )  ( + T8 450 ) ) ( <= ( + T8 485 )( + T6 382 ) ) )
(or ( <= ( + T6 493 )  ( + T8 485 ) ) ( <= ( + T8 501 )( + T6 395 ) ) )
(or ( <= ( + T6 545 )  ( + T8 501 ) ) ( <= ( + T8 581 )( + T6 493 ) ) )
(or ( <= ( + T6 28 ) T9 ) ( <= ( + T9 84 ) T6 ) )
(or ( <= ( + T6 83 )  ( + T9 84 ) ) ( <= ( + T9 153 )( + T6 28 ) ) )
(or ( <= ( + T6 88 )  ( + T9 153 ) ) ( <= ( + T9 216 )( + T6 83 ) ) )
(or ( <= ( + T6 180 )  ( + T9 216 ) ) ( <= ( + T9 236 )( + T6 88 ) ) )
(or ( <= ( + T6 214 )  ( + T9 236 ) ) ( <= ( + T9 317 )( + T6 180 ) ) )
(or ( <= ( + T6 264 )  ( + T9 317 ) ) ( <= ( + T9 329 )( + T6 214 ) ) )
(or ( <= ( + T6 265 )  ( + T9 329 ) ) ( <= ( + T9 401 )( + T6 264 ) ) )
(or ( <= ( + T6 297 )  ( + T9 401 ) ) ( <= ( + T9 472 )( + T6 265 ) ) )
(or ( <= ( + T6 382 )  ( + T9 472 ) ) ( <= ( + T9 567 )( + T6 297 ) ) )
(or ( <= ( + T6 395 )  ( + T9 567 ) ) ( <= ( + T9 611 )( + T6 382 ) ) )
(or ( <= ( + T6 493 )  ( + T9 611 ) ) ( <= ( + T9 648 )( + T6 395 ) ) )
(or ( <= ( + T6 545 )  ( + T9 648 ) ) ( <= ( + T9 698 )( + T6 493 ) ) )
(or ( <= ( + T6 28 ) T10 ) ( <= ( + T10 69 ) T6 ) )
(or ( <= ( + T6 83 )  ( + T10 69 ) ) ( <= ( + T10 85 )( + T6 28 ) ) )
(or ( <= ( + T6 88 )  ( + T10 85 ) ) ( <= ( + T10 111 )( + T6 83 ) ) )
(or ( <= ( + T6 180 )  ( + T10 111 ) ) ( <= ( + T10 124 )( + T6 88 ) ) )
(or ( <= ( + T6 214 )  ( + T10 124 ) ) ( <= ( + T10 192 )( + T6 180 ) ) )
(or ( <= ( + T6 264 )  ( + T10 192 ) ) ( <= ( + T10 231 )( + T6 214 ) ) )
(or ( <= ( + T6 265 )  ( + T10 231 ) ) ( <= ( + T10 234 )( + T6 264 ) ) )
(or ( <= ( + T6 297 )  ( + T10 234 ) ) ( <= ( + T10 241 )( + T6 265 ) ) )
(or ( <= ( + T6 382 )  ( + T10 241 ) ) ( <= ( + T10 247 )( + T6 297 ) ) )
(or ( <= ( + T6 395 )  ( + T10 247 ) ) ( <= ( + T10 319 )( + T6 382 ) ) )
(or ( <= ( + T6 493 )  ( + T10 319 ) ) ( <= ( + T10 323 )( + T6 395 ) ) )
(or ( <= ( + T6 545 )  ( + T10 323 ) ) ( <= ( + T10 374 )( + T6 493 ) ) )
(or ( <= ( + T7 91 ) T8 ) ( <= ( + T8 39 ) T7 ) )
(or ( <= ( + T7 175 )  ( + T8 39 ) ) ( <= ( + T8 55 )( + T7 91 ) ) )
(or ( <= ( + T7 196 )  ( + T8 55 ) ) ( <= ( + T8 72 )( + T7 175 ) ) )
(or ( <= ( + T7 263 )  ( + T8 72 ) ) ( <= ( + T8 118 )( + T7 196 ) ) )
(or ( <= ( + T7 319 )  ( + T8 118 ) ) ( <= ( + T8 164 )( + T7 263 ) ) )
(or ( <= ( + T7 393 )  ( + T8 164 ) ) ( <= ( + T8 204 )( + T7 319 ) ) )
(or ( <= ( + T7 421 )  ( + T8 204 ) ) ( <= ( + T8 283 )( + T7 393 ) ) )
(or ( <= ( + T7 446 )  ( + T8 283 ) ) ( <= ( + T8 356 )( + T7 421 ) ) )
(or ( <= ( + T7 491 )  ( + T8 356 ) ) ( <= ( + T8 450 )( + T7 446 ) ) )
(or ( <= ( + T7 544 )  ( + T8 450 ) ) ( <= ( + T8 485 )( + T7 491 ) ) )
(or ( <= ( + T7 605 )  ( + T8 485 ) ) ( <= ( + T8 501 )( + T7 544 ) ) )
(or ( <= ( + T7 696 )  ( + T8 501 ) ) ( <= ( + T8 581 )( + T7 605 ) ) )
(or ( <= ( + T7 91 ) T9 ) ( <= ( + T9 84 ) T7 ) )
(or ( <= ( + T7 175 )  ( + T9 84 ) ) ( <= ( + T9 153 )( + T7 91 ) ) )
(or ( <= ( + T7 196 )  ( + T9 153 ) ) ( <= ( + T9 216 )( + T7 175 ) ) )
(or ( <= ( + T7 263 )  ( + T9 216 ) ) ( <= ( + T9 236 )( + T7 196 ) ) )
(or ( <= ( + T7 319 )  ( + T9 236 ) ) ( <= ( + T9 317 )( + T7 263 ) ) )
(or ( <= ( + T7 393 )  ( + T9 317 ) ) ( <= ( + T9 329 )( + T7 319 ) ) )
(or ( <= ( + T7 421 )  ( + T9 329 ) ) ( <= ( + T9 401 )( + T7 393 ) ) )
(or ( <= ( + T7 446 )  ( + T9 401 ) ) ( <= ( + T9 472 )( + T7 421 ) ) )
(or ( <= ( + T7 491 )  ( + T9 472 ) ) ( <= ( + T9 567 )( + T7 446 ) ) )
(or ( <= ( + T7 544 )  ( + T9 567 ) ) ( <= ( + T9 611 )( + T7 491 ) ) )
(or ( <= ( + T7 605 )  ( + T9 611 ) ) ( <= ( + T9 648 )( + T7 544 ) ) )
(or ( <= ( + T7 696 )  ( + T9 648 ) ) ( <= ( + T9 698 )( + T7 605 ) ) )
(or ( <= ( + T7 91 ) T10 ) ( <= ( + T10 69 ) T7 ) )
(or ( <= ( + T7 175 )  ( + T10 69 ) ) ( <= ( + T10 85 )( + T7 91 ) ) )
(or ( <= ( + T7 196 )  ( + T10 85 ) ) ( <= ( + T10 111 )( + T7 175 ) ) )
(or ( <= ( + T7 263 )  ( + T10 111 ) ) ( <= ( + T10 124 )( + T7 196 ) ) )
(or ( <= ( + T7 319 )  ( + T10 124 ) ) ( <= ( + T10 192 )( + T7 263 ) ) )
(or ( <= ( + T7 393 )  ( + T10 192 ) ) ( <= ( + T10 231 )( + T7 319 ) ) )
(or ( <= ( + T7 421 )  ( + T10 231 ) ) ( <= ( + T10 234 )( + T7 393 ) ) )
(or ( <= ( + T7 446 )  ( + T10 234 ) ) ( <= ( + T10 241 )( + T7 421 ) ) )
(or ( <= ( + T7 491 )  ( + T10 241 ) ) ( <= ( + T10 247 )( + T7 446 ) ) )
(or ( <= ( + T7 544 )  ( + T10 247 ) ) ( <= ( + T10 319 )( + T7 491 ) ) )
(or ( <= ( + T7 605 )  ( + T10 319 ) ) ( <= ( + T10 323 )( + T7 544 ) ) )
(or ( <= ( + T7 696 )  ( + T10 323 ) ) ( <= ( + T10 374 )( + T7 605 ) ) )
(or ( <= ( + T8 39 ) T9 ) ( <= ( + T9 84 ) T8 ) )
(or ( <= ( + T8 55 )  ( + T9 84 ) ) ( <= ( + T9 153 )( + T8 39 ) ) )
(or ( <= ( + T8 72 )  ( + T9 153 ) ) ( <= ( + T9 216 )( + T8 55 ) ) )
(or ( <= ( + T8 118 )  ( + T9 216 ) ) ( <= ( + T9 236 )( + T8 72 ) ) )
(or ( <= ( + T8 164 )  ( + T9 236 ) ) ( <= ( + T9 317 )( + T8 118 ) ) )
(or ( <= ( + T8 204 )  ( + T9 317 ) ) ( <= ( + T9 329 )( + T8 164 ) ) )
(or ( <= ( + T8 283 )  ( + T9 329 ) ) ( <= ( + T9 401 )( + T8 204 ) ) )
(or ( <= ( + T8 356 )  ( + T9 401 ) ) ( <= ( + T9 472 )( + T8 283 ) ) )
(or ( <= ( + T8 450 )  ( + T9 472 ) ) ( <= ( + T9 567 )( + T8 356 ) ) )
(or ( <= ( + T8 485 )  ( + T9 567 ) ) ( <= ( + T9 611 )( + T8 450 ) ) )
(or ( <= ( + T8 501 )  ( + T9 611 ) ) ( <= ( + T9 648 )( + T8 485 ) ) )
(or ( <= ( + T8 581 )  ( + T9 648 ) ) ( <= ( + T9 698 )( + T8 501 ) ) )
(or ( <= ( + T8 39 ) T10 ) ( <= ( + T10 69 ) T8 ) )
(or ( <= ( + T8 55 )  ( + T10 69 ) ) ( <= ( + T10 85 )( + T8 39 ) ) )
(or ( <= ( + T8 72 )  ( + T10 85 ) ) ( <= ( + T10 111 )( + T8 55 ) ) )
(or ( <= ( + T8 118 )  ( + T10 111 ) ) ( <= ( + T10 124 )( + T8 72 ) ) )
(or ( <= ( + T8 164 )  ( + T10 124 ) ) ( <= ( + T10 192 )( + T8 118 ) ) )
(or ( <= ( + T8 204 )  ( + T10 192 ) ) ( <= ( + T10 231 )( + T8 164 ) ) )
(or ( <= ( + T8 283 )  ( + T10 231 ) ) ( <= ( + T10 234 )( + T8 204 ) ) )
(or ( <= ( + T8 356 )  ( + T10 234 ) ) ( <= ( + T10 241 )( + T8 283 ) ) )
(or ( <= ( + T8 450 )  ( + T10 241 ) ) ( <= ( + T10 247 )( + T8 356 ) ) )
(or ( <= ( + T8 485 )  ( + T10 247 ) ) ( <= ( + T10 319 )( + T8 450 ) ) )
(or ( <= ( + T8 501 )  ( + T10 319 ) ) ( <= ( + T10 323 )( + T8 485 ) ) )
(or ( <= ( + T8 581 )  ( + T10 323 ) ) ( <= ( + T10 374 )( + T8 501 ) ) )
(or ( <= ( + T9 84 ) T10 ) ( <= ( + T10 69 ) T9 ) )
(or ( <= ( + T9 153 )  ( + T10 69 ) ) ( <= ( + T10 85 )( + T9 84 ) ) )
(or ( <= ( + T9 216 )  ( + T10 85 ) ) ( <= ( + T10 111 )( + T9 153 ) ) )
(or ( <= ( + T9 236 )  ( + T10 111 ) ) ( <= ( + T10 124 )( + T9 216 ) ) )
(or ( <= ( + T9 317 )  ( + T10 124 ) ) ( <= ( + T10 192 )( + T9 236 ) ) )
(or ( <= ( + T9 329 )  ( + T10 192 ) ) ( <= ( + T10 231 )( + T9 317 ) ) )
(or ( <= ( + T9 401 )  ( + T10 231 ) ) ( <= ( + T10 234 )( + T9 329 ) ) )
(or ( <= ( + T9 472 )  ( + T10 234 ) ) ( <= ( + T10 241 )( + T9 401 ) ) )
(or ( <= ( + T9 567 )  ( + T10 241 ) ) ( <= ( + T10 247 )( + T9 472 ) ) )
(or ( <= ( + T9 611 )  ( + T10 247 ) ) ( <= ( + T10 319 )( + T9 567 ) ) )
(or ( <= ( + T9 648 )  ( + T10 319 ) ) ( <= ( + T10 323 )( + T9 611 ) ) )
(or ( <= ( + T9 698 )  ( + T10 323 ) ) ( <= ( + T10 374 )( + T9 648 ) ) )
( <= ( + T1 769 ) Z)
( <= ( + T2 657 ) Z)
( <= ( + T3 646 ) Z)
( <= ( + T4 674 ) Z)
( <= ( + T5 702 ) Z)
( <= ( + T6 545 ) Z)
( <= ( + T7 696 ) Z)
( <= ( + T8 581 ) Z)
( <= ( + T9 698 ) Z)
( <= ( + T10 374 ) Z)
( >= T1 0 )
( >= T2 0 )
( >= T3 0 )
( >= T4 0 )
( >= T5 0 )
( >= T6 0 )
( >= T7 0 )
( >= T8 0 )
( >= T9 0 )
( >= T10 0 )
) )
(minimize Z)
(check-sat)